<number of tasks>
45

<cycle time>
62

<task times>
1 9
2 9
3 10
4 10
5 17
6 17
7 13
8 13
9 20
10 20
11 10
12 11
13 6
14 22
15 11
16 19
17 12
18 3
19 7
20 4
21 55
22 14
23 27
24 29
25 26
26 6
27 5
28 24
29 4
30 5
31 7
32 4
33 15
34 3
35 7
36 9
37 4
38 7
39 5
40 4
41 21
42 12
43 6
44 5
45 5

<task process alternatives>
1: 8,15 ; 11,8
2: 8,15 ; 11,8
3: 8,15 ; 12,8
4: 8,15 ; 12,8
5: 14,15 ; 21,8
6: 14,15 ; 21,8
7: 11,15 ; 16,8
8: 11,15 ; 16,8
9: 16,15 ; 24,8
10: 16,15 ; 24,8
11: 8,15 ; 12,8
12: 9,15 ; 14,8
13: 5,15 ; 8,8
14: 18,15 ; 27,8
15: 9,15 ; 14,8
16: 16,15 ; 23,8
17: 10,15 ; 15,8
18: 3,15 ; 4,8
19: 6,15 ; 9,8
20: 4,15 ; 5,8
21: 44,15 ; 66,8
22: 12,15 ; 17,8
23: 22,15 ; 33,8
24: 24,15 ; 35,8
25: 21,15 ; 32,8
26: 5,15 ; 8,8
27: 4,15 ; 6,8
28: 20,15 ; 29,8
29: 4,15 ; 5,8
30: 4,15 ; 6,8
31: 6,15 ; 9,8
32: 4,15 ; 5,8
33: 12,15 ; 18,8
34: 3,15 ; 4,8
35: 6,15 ; 9,8
36: 8,15 ; 11,8
37: 4,15 ; 5,8
38: 6,15 ; 9,8
39: 4,15 ; 6,8
40: 4,15 ; 5,8
41: 17,15 ; 26,8
42: 10,15 ; 15,8
43: 5,15 ; 8,8
44: 4,15 ; 6,8
45: 4,15 ; 6,8

<incompatible tasks>
2,17
21,1
26,4
8,22
6,16
9,23

<precedence relations>
33,36
15,24
24,33
42,45
4,6
12,13
21,22
14,25
29,41
12,37
40,41
14,31
1,3
27,28
31,41
2,8
17,27
13,14
19,33
16,19
33,35
15,23
9,41
41,42
18,19
42,44
26,38
5,9
38,40
39,41
22,28
23,33
2,4
8,14
14,30
17,26
11,13
19,20
27,33
28,38
7,9
15,16
6,10
30,41
33,34
10,41
3,5
20,21
32,41
35,40
14,17
8,10
14,32
14,29
34,38
1,7
36,38
37,43
13,15
15,18
25,26
7,14

<number of task attributes>
3

<task attribute values>
1,1:70
1,2:1
1,3:69
2,1:22
2,2:19
2,3:8
3,2:56
3,3:30
4,1:69
4,2:4
4,3:49
5,1:71
5,2:50
5,3:45
6,1:25
6,2:3
6,3:42
7,1:7
7,2:21
7,3:87
8,1:5
8,2:28
8,3:38
9,1:48
9,2:63
9,3:98
10,1:47
10,2:5
11,1:22
11,2:18
12,1:2
12,2:22
13,1:4
13,2:1
14,1:8
14,2:56
14,3:6
15,1:1
15,2:1
16,1:1
16,2:2
16,3:5
17,1:83
17,2:32
17,3:83
18,1:4
18,2:12
19,2:15
19,3:1
21,1:5
21,2:36
21,3:86
22,1:4
22,2:5
22,3:16
23,1:27
23,2:3
23,3:4
24,1:5
24,2:27
24,3:3
25,1:10
25,2:40
26,1:42
26,2:64
26,3:14
27,1:6
27,2:17
27,3:16
28,1:38
28,2:1
28,3:66
29,2:1
30,1:81
30,2:54
30,3:9
31,1:2
31,2:21
32,2:2
33,1:9
33,2:5
34,1:4
34,3:3
35,1:94
35,2:24
35,3:20
36,2:9
37,3:1
38,1:2
38,2:5
38,3:63
40,1:2
40,2:54
40,3:8
41,2:6
41,3:8
42,1:1
42,2:6
43,2:59
43,3:3
44,2:1

<attribute bounds per station>
1:100
2:100
3:100

<linked tasks>
1,3
2,8
3,11
11,39
13,39
25,31
26,28
26,34
27,33
28,34
33,34

<optimal SALBP-1 value>
9

<rand seed>
236278236

<end>
